WARNING: for repeatability, setting FPU to use double precision
============================[ Problem Statistics ]=============================
|                                                                             |
|  Number of variables:           400                                         |
|  Number of clauses:            1721                                         |
|  Parse time:                   0.00 s                                       |
|  Eliminated clauses:           0.00 Mb                                      |
|  Simplification time:          0.00 s                                       |
|                                                                             |
============================[ Search Statistics ]==============================
| Conflicts |          ORIGINAL         |          LEARNT          | Progress |
|           |    Vars  Clauses Literals |    Limit  Clauses Lit/Cl |          |
===============================================================================
|       100 |     395     1711     5339 |      627      100     22 |  0.001 % |
|       250 |     395     1711     5339 |      690      250     20 |  0.001 % |
|       475 |     395     1711     5339 |      759      475     21 |  0.001 % |
|       812 |     395     1711     5339 |      835      411     18 |  0.001 % |
|      1318 |     395     1711     5339 |      918      473     17 |  0.001 % |
|      2077 |     395     1711     5339 |     1010      755     18 |  0.001 % |
|      3216 |     395     1711     5339 |     1111      841     17 |  0.001 % |
|      4924 |     395     1711     5339 |     1222      812     17 |  0.001 % |
|      7486 |     395     1711     5339 |     1344      818     17 |  0.001 % |
|     11330 |     395     1711     5339 |     1479     1201     18 |  0.001 % |
|     17096 |     395     1711     5339 |     1627      866     16 |  0.001 % |
|     25745 |     395     1711     5339 |     1789     1219     16 |  0.001 % |
|     38719 |     395     1711     5339 |     1968     1363     17 |  0.001 % |
|     58180 |     395     1711     5339 |     2165     1734     17 |  0.001 % |
|     87372 |     395     1711     5339 |     2382     1160     17 |  0.001 % |
|    131161 |     395     1711     5339 |     2620     1296     17 |  0.001 % |
|    196845 |     395     1711     5339 |     2882     1695     17 |  0.001 % |
|    295371 |     395     1711     5339 |     3171     2186     18 |  0.001 % |
|    443160 |     395     1711     5339 |     3488     2090     21 |  0.001 % |
|    664843 |     395     1711     5339 |     3836     2978     19 |  0.001 % |
|    997368 |     395     1711     5339 |     4220     3762     20 |  0.001 % |
===============================================================================
restarts              : 2047
conflicts             : 1059287        (59325 /sec)
decisions             : 1330080        (0.00 % random) (74491 /sec)
propagations          : 65825562       (3686546 /sec)
conflict literals     : 21704978       (19.10 % deleted)
Memory used           : 7.00 MB
CPU time              : 17.8556 s

SATISFIABLE
WARNING: for repeatability, setting FPU to use double precision
============================[ Problem Statistics ]=============================
|                                                                             |
|  Number of variables:           400                                         |
|  Number of clauses:            1721                                         |
|  Parse time:                   0.00 s                                       |
|  Eliminated clauses:           0.00 Mb                                      |
|  Simplification time:          0.00 s                                       |
|                                                                             |
============================[ Search Statistics ]==============================
| Conflicts |          ORIGINAL         |          LEARNT          | Progress |
|           |    Vars  Clauses Literals |    Limit  Clauses Lit/Cl |          |
===============================================================================
|       100 |     395     1711     5339 |      627      100     22 |  0.001 % |
|       250 |     395     1711     5339 |      690      250     20 |  0.001 % |
|       475 |     395     1711     5339 |      759      475     21 |  0.001 % |
|       812 |     395     1711     5339 |      835      411     18 |  0.001 % |
|      1318 |     395     1711     5339 |      918      473     17 |  0.001 % |
|      2077 |     395     1711     5339 |     1010      755     18 |  0.001 % |
|      3216 |     395     1711     5339 |     1111      841     17 |  0.001 % |
|      4924 |     395     1711     5339 |     1222      812     17 |  0.001 % |
|      7486 |     395     1711     5339 |     1344      818     17 |  0.001 % |
|     11330 |     395     1711     5339 |     1479     1201     18 |  0.001 % |
|     17096 |     395     1711     5339 |     1627      866     16 |  0.001 % |
|     25745 |     395     1711     5339 |     1789     1219     16 |  0.001 % |
|     38719 |     395     1711     5339 |     1968     1363     17 |  0.001 % |
|     58180 |     395     1711     5339 |     2165     1734     17 |  0.001 % |
|     87372 |     395     1711     5339 |     2382     1160     17 |  0.001 % |
|    131161 |     395     1711     5339 |     2620     1296     17 |  0.001 % |
|    196845 |     395     1711     5339 |     2882     1695     17 |  0.001 % |
|    295371 |     395     1711     5339 |     3171     2186     18 |  0.001 % |
|    443160 |     395     1711     5339 |     3488     2090     21 |  0.001 % |
|    664843 |     395     1711     5339 |     3836     2978     19 |  0.001 % |
|    997368 |     395     1711     5339 |     4220     3762     20 |  0.001 % |
===============================================================================
restarts              : 2047
conflicts             : 1059287        (59166 /sec)
decisions             : 1330080        (0.00 % random) (74291 /sec)
propagations          : 65825562       (3676659 /sec)
conflict literals     : 21704978       (19.10 % deleted)
Memory used           : 7.00 MB
CPU time              : 17.9036 s

SATISFIABLE
WARNING: for repeatability, setting FPU to use double precision
============================[ Problem Statistics ]=============================
|                                                                             |
|  Number of variables:           400                                         |
|  Number of clauses:            1721                                         |
|  Parse time:                   0.00 s                                       |
|  Eliminated clauses:           0.00 Mb                                      |
|  Simplification time:          0.00 s                                       |
|                                                                             |
============================[ Search Statistics ]==============================
| Conflicts |          ORIGINAL         |          LEARNT          | Progress |
|           |    Vars  Clauses Literals |    Limit  Clauses Lit/Cl |          |
===============================================================================
|       100 |     395     1711     5339 |      627      100     22 |  0.001 % |
|       250 |     395     1711     5339 |      690      250     20 |  0.001 % |
|       475 |     395     1711     5339 |      759      475     21 |  0.001 % |
|       812 |     395     1711     5339 |      835      411     18 |  0.001 % |
|      1318 |     395     1711     5339 |      918      473     17 |  0.001 % |
|      2077 |     395     1711     5339 |     1010      755     18 |  0.001 % |
|      3216 |     395     1711     5339 |     1111      841     17 |  0.001 % |
|      4924 |     395     1711     5339 |     1222      812     17 |  0.001 % |
|      7486 |     395     1711     5339 |     1344      818     17 |  0.001 % |
|     11330 |     395     1711     5339 |     1479     1201     18 |  0.001 % |
|     17096 |     395     1711     5339 |     1627      866     16 |  0.001 % |
|     25745 |     395     1711     5339 |     1789     1219     16 |  0.001 % |
|     38719 |     395     1711     5339 |     1968     1363     17 |  0.001 % |
|     58180 |     395     1711     5339 |     2165     1734     17 |  0.001 % |
|     87372 |     395     1711     5339 |     2382     1160     17 |  0.001 % |
|    131161 |     395     1711     5339 |     2620     1296     17 |  0.001 % |
|    196845 |     395     1711     5339 |     2882     1695     17 |  0.001 % |
|    295371 |     395     1711     5339 |     3171     2186     18 |  0.001 % |
|    443160 |     395     1711     5339 |     3488     2090     21 |  0.001 % |
|    664843 |     395     1711     5339 |     3836     2978     19 |  0.001 % |
|    997368 |     395     1711     5339 |     4220     3762     20 |  0.001 % |
===============================================================================
restarts              : 2047
conflicts             : 1059287        (62249 /sec)
decisions             : 1330080        (0.00 % random) (78162 /sec)
propagations          : 65825562       (3868220 /sec)
conflict literals     : 21704978       (19.10 % deleted)
Memory used           : 7.00 MB
CPU time              : 17.017 s

SATISFIABLE
WARNING: for repeatability, setting FPU to use double precision
============================[ Problem Statistics ]=============================
|                                                                             |
|  Number of variables:           400                                         |
|  Number of clauses:            1720                                         |
|  Parse time:                   0.00 s                                       |
|  Eliminated clauses:           0.00 Mb                                      |
|  Simplification time:          0.00 s                                       |
|                                                                             |
============================[ Search Statistics ]==============================
| Conflicts |          ORIGINAL         |          LEARNT          | Progress |
|           |    Vars  Clauses Literals |    Limit  Clauses Lit/Cl |          |
===============================================================================
|       100 |     389     1705     5177 |      625      100     23 |  0.001 % |
|       250 |     389     1705     5177 |      687      250     21 |  0.001 % |
|       475 |     389     1705     5177 |      756      475     20 |  0.001 % |
|       812 |     389     1705     5177 |      832      409     18 |  0.001 % |
|      1318 |     389     1705     5177 |      915      477     18 |  0.001 % |
|      2077 |     389     1705     5177 |     1006      762     18 |  0.001 % |
|      3216 |     389     1705     5177 |     1107      851     16 |  0.001 % |
|      4924 |     389     1705     5177 |     1218      862     16 |  0.001 % |
|      7486 |     389     1705     5177 |     1340      881     18 |  0.001 % |
|     11330 |     389     1705     5177 |     1474     1253     18 |  0.001 % |
|     17096 |     389     1705     5177 |     1621      959     15 |  0.001 % |
|     25745 |     389     1705     5177 |     1783     1320     18 |  0.001 % |
|     38719 |     389     1705     5177 |     1962     1531     18 |  0.001 % |
|     58180 |     389     1705     5177 |     2158     1948     18 |  0.001 % |
|     87372 |     389     1705     5177 |     2374     1380     19 |  0.001 % |
|    131161 |     389     1705     5177 |     2611     1713     18 |  0.001 % |
|    196845 |     389     1705     5177 |     2872     2307     18 |  0.001 % |
|    295371 |     389     1705     5177 |     3159     1670     17 |  0.001 % |
|    443160 |     389     1705     5177 |     3475     1986     18 |  0.001 % |
|    664843 |     389     1705     5177 |     3823     1925     18 |  0.001 % |
|    997368 |     389     1705     5177 |     4205     1969     18 |  0.001 % |
|   1496156 |     389     1705     5177 |     4626     3366     19 |  0.001 % |
|   2244338 |     389     1705     5177 |     5089     4438     16 |  0.001 % |
|   3366612 |     389     1705     5177 |     5597     4960     19 |  0.001 % |
===============================================================================
restarts              : 7976
conflicts             : 4445275        (50871 /sec)
decisions             : 5550871        (0.00 % random) (63523 /sec)
propagations          : 273906131      (3134511 /sec)
conflict literals     : 90382134       (19.83 % deleted)
Memory used           : 9.00 MB
CPU time              : 87.384 s

SATISFIABLE
WARNING: for repeatability, setting FPU to use double precision
============================[ Problem Statistics ]=============================
|                                                                             |
|  Number of variables:           400                                         |
|  Number of clauses:            1721                                         |
|  Parse time:                   0.00 s                                       |
|  Eliminated clauses:           0.00 Mb                                      |
|  Simplification time:          0.00 s                                       |
|                                                                             |
============================[ Search Statistics ]==============================
| Conflicts |          ORIGINAL         |          LEARNT          | Progress |
|           |    Vars  Clauses Literals |    Limit  Clauses Lit/Cl |          |
===============================================================================
|       100 |     395     1711     5339 |      627      100     22 |  0.001 % |
|       250 |     395     1711     5339 |      690      250     20 |  0.001 % |
|       475 |     395     1711     5339 |      759      475     21 |  0.001 % |
|       812 |     395     1711     5339 |      835      411     18 |  0.001 % |
|      1318 |     395     1711     5339 |      918      473     17 |  0.001 % |
|      2077 |     395     1711     5339 |     1010      755     18 |  0.001 % |
|      3216 |     395     1711     5339 |     1111      841     17 |  0.001 % |
|      4924 |     395     1711     5339 |     1222      812     17 |  0.001 % |
|      7486 |     395     1711     5339 |     1344      818     17 |  0.001 % |
|     11330 |     395     1711     5339 |     1479     1201     18 |  0.001 % |
|     17096 |     395     1711     5339 |     1627      866     16 |  0.001 % |
|     25745 |     395     1711     5339 |     1789     1219     16 |  0.001 % |
|     38719 |     395     1711     5339 |     1968     1363     17 |  0.001 % |
|     58180 |     395     1711     5339 |     2165     1734     17 |  0.001 % |
|     87372 |     395     1711     5339 |     2382     1160     17 |  0.001 % |
|    131161 |     395     1711     5339 |     2620     1296     17 |  0.001 % |
|    196845 |     395     1711     5339 |     2882     1695     17 |  0.001 % |
|    295371 |     395     1711     5339 |     3171     2186     18 |  0.001 % |
|    443160 |     395     1711     5339 |     3488     2090     21 |  0.001 % |
|    664843 |     395     1711     5339 |     3836     2978     19 |  0.001 % |
|    997368 |     395     1711     5339 |     4220     3762     20 |  0.001 % |
===============================================================================
restarts              : 2047
conflicts             : 1059287        (57395 /sec)
decisions             : 1330080        (0.00 % random) (72068 /sec)
propagations          : 65825562       (3566634 /sec)
conflict literals     : 21704978       (19.10 % deleted)
Memory used           : 7.00 MB
CPU time              : 18.4559 s

SATISFIABLE
WARNING: for repeatability, setting FPU to use double precision
============================[ Problem Statistics ]=============================
|                                                                             |
|  Number of variables:           400                                         |
|  Number of clauses:            1722                                         |
|  Parse time:                   0.00 s                                       |
|  Eliminated clauses:           0.00 Mb                                      |
|  Simplification time:          0.00 s                                       |
|                                                                             |
============================[ Search Statistics ]==============================
| Conflicts |          ORIGINAL         |          LEARNT          | Progress |
|           |    Vars  Clauses Literals |    Limit  Clauses Lit/Cl |          |
===============================================================================
|       100 |     397     1719     5526 |      630      100     22 |  0.001 % |
|       250 |     397     1719     5526 |      693      250     20 |  0.001 % |
|       475 |     397     1719     5526 |      762      475     21 |  0.001 % |
|       812 |     397     1719     5526 |      838      411     18 |  0.001 % |
|      1318 |     397     1719     5526 |      922      473     17 |  0.001 % |
|      2077 |     397     1719     5526 |     1015      755     18 |  0.001 % |
|      3216 |     397     1719     5526 |     1116      839     17 |  0.001 % |
|      4924 |     397     1719     5526 |     1228      823     16 |  0.001 % |
|      7486 |     397     1719     5526 |     1351      852     16 |  0.001 % |
|     11330 |     397     1719     5526 |     1486     1210     18 |  0.001 % |
|     17096 |     397     1719     5526 |     1634      860     17 |  0.001 % |
|     25745 |     397     1719     5526 |     1798     1145     17 |  0.001 % |
|     38719 |     397     1719     5526 |     1978     1236     18 |  0.001 % |
|     58180 |     397     1719     5526 |     2175     1502     19 |  0.001 % |
|     87372 |     397     1719     5526 |     2393     1899     17 |  0.001 % |
|    131161 |     397     1719     5526 |     2632     1734     18 |  0.001 % |
|    196845 |     397     1719     5526 |     2896     1934     17 |  0.001 % |
|    295371 |     397     1719     5526 |     3185     1968     18 |  0.001 % |
|    443160 |     397     1719     5526 |     3504     2917     18 |  0.001 % |
|    664843 |     397     1719     5526 |     3854     2869     18 |  0.001 % |
|    997368 |     397     1719     5526 |     4240     3800     22 |  0.001 % |
|   1496156 |     397     1719     5526 |     4664     3362     20 |  0.001 % |
|   2244338 |     397     1719     5526 |     5130     2758     19 |  0.001 % |
|   3366612 |     397     1719     5526 |     5643     4552     18 |  0.001 % |
|   5050023 |     397     1719     5526 |     6208     4105     19 |  0.001 % |
|   7575139 |     397     1719     5526 |     6829     6137     18 |  0.001 % |
===============================================================================
restarts              : 16381
conflicts             : 10248826       (48235 /sec)
decisions             : 12729394       (0.00 % random) (59910 /sec)
propagations          : 637446032      (3000101 /sec)
conflict literals     : 210265739      (20.12 % deleted)
Memory used           : 11.00 MB
CPU time              : 212.475 s

SATISFIABLE
